12
48
1013
1107
1145
1094
1115
792
1070
1066
854
1056
1139
199
84	649
335	990
237	224
925	86
500	520
272	586
439	451
535	33
122	355
351	308
619	574
195	764
395	666
150	634
543	139
716	719
227	586
475	669
584	40
337	862
600	299
824	731
600	304
778	88
676	194
204	46
192	665
387	961
493	631
527	523
748	95
650	240
178	751
103	412
89	408
142	418
927	291
337	431
589	822
501	829
575	32
808	220
384	849
835	150
929	197
943	826
505	810
735	773
